138680
0,86,43,65,58,9,26,27,57,75,88,92,11,91,22,79,56,82,33,8,25,49,67,98,18,80,41,97,105,7,96,54,28,29,4,51,64,30,12,87,68,5,45,76,39,55,19,15,63,89,16,20,21,61,85,24,44,99,50,81,71,1,32,83,52,62,34,102,60,46,13,73,101,23,14,3,74,31,6,48,36,38,72,47,84,35,70,53,94,66,40,10,103,37,104,100,2,69,17,93,77,95,59,90,78,42,0